# Solution for model micodag
# Objective value = 19.8750171355054
s_0_1 0
s_1_0 0
s_0_2 0
s_2_0 2.5879184615627837e-01
s_1_2 0
s_2_1 2.4984782141484674e-01
s_1_3 0
s_3_1 2.5954296952396438e-01
s_1_9 0
s_9_1 0
s_1_12 0
s_12_1 6.7146943461032338e-01
s_1_13 0
s_13_1 2.2181182342983474e-01
s_2_3 0
s_3_2 2.2534177499345542e-01
s_2_4 0
s_4_2 3.9799744629065525e-01
s_2_6 0
s_6_2 0
s_2_8 0
s_8_2 2.8668820532811390e-01
s_3_4 0
s_4_3 3.4108312167958235e+00
s_3_6 0
s_6_3 0
s_3_7 0
s_7_3 0
s_3_8 0
s_8_3 3.4108312167958235e+00
s_3_9 0
s_9_3 3.4108312167958235e+00
s_3_12 0
s_12_3 0
s_3_13 0
s_13_3 3.4108312167958235e+00
s_4_5 0
s_5_4 0
s_4_6 0
s_6_4 3.5197356680717551e-01
s_4_7 0
s_7_4 0
s_4_8 0
s_8_4 0
s_4_11 0
s_11_4 3.4839647234712690e-01
s_5_6 0
s_6_5 5.7648061527980143e-01
s_5_7 0
s_7_5 6.5397686703868807e-01
s_5_14 0
s_14_5 3.8391177616670680e-01
s_6_8 0
s_8_6 0.465473114753463
s_7_8 0
s_8_7 0
s_7_9 0
s_9_7 2.8581305916969146e-01
s_7_10 0
s_10_7 2.4243047859945088e-01
s_7_11 0
s_11_7 4.1073839645230770e-01
s_8_11 0
s_11_8 2.2836928274461910e-01
s_9_12 0
s_12_9 3.6949304700759766e-01
s_12_13 0
s_13_12 2.8762919282795574e-01
s_0_0 1.0877875545603919e+00
s_1_1 6.1501054496343821e-01
s_2_2 6.6114331068100185e-01
s_3_3 3.4108312167958235e+00
s_4_4 0.987179874388576
s_5_5 7.4811349258323734e-01
s_6_6 9.7071429805080278e-01
s_7_7 1.1118947288809715e+00
s_8_8 7.1922981121608354e-01
s_9_9 9.7138608377604108e-01
s_10_10 0.628781306541442
s_11_11 6.3198769309932334e-01
s_12_12 9.6597967858575551e-01
s_13_13 6.6639545288620816e-01
s_14_14 8.7043781896989492e-01
Gamma_0_0 1.0429705434768484e+00
Gamma_0_1 0
Gamma_0_2 0
Gamma_0_3 0
Gamma_0_4 0
Gamma_0_5 0
Gamma_0_6 0
Gamma_0_7 0
Gamma_0_8 0
Gamma_0_9 0
Gamma_0_10 0
Gamma_0_11 0
Gamma_0_12 0
Gamma_0_13 0
Gamma_0_14 0
Gamma_1_0 0
Gamma_1_1 7.8422608026221508e-01
Gamma_1_2 0
Gamma_1_3 0
Gamma_1_4 0
Gamma_1_5 0
Gamma_1_6 0
Gamma_1_7 0
Gamma_1_8 0
Gamma_1_9 0
Gamma_1_10 0
Gamma_1_11 0
Gamma_1_12 0
Gamma_1_13 0
Gamma_1_14 0
Gamma_2_0 -5.0871587959909248e-01
Gamma_2_1 -4.9984779824947473e-01
Gamma_2_2 0.813107195073935
Gamma_2_3 0
Gamma_2_4 0
Gamma_2_5 0
Gamma_2_6 0
Gamma_2_7 0
Gamma_2_8 0
Gamma_2_9 0
Gamma_2_10 0
Gamma_2_11 0
Gamma_2_12 0
Gamma_2_13 0
Gamma_2_14 0
Gamma_3_0 0
Gamma_3_1 5.0945359899009945e-01
Gamma_3_2 4.7470177479493003e-01
Gamma_3_3 8.1308070294905332e-01
Gamma_3_4 0
Gamma_3_5 0
Gamma_3_6 0
Gamma_3_7 0
Gamma_3_8 0
Gamma_3_9 0
Gamma_3_10 0
Gamma_3_11 0
Gamma_3_12 0
Gamma_3_13 0
Gamma_3_14 0
Gamma_4_0 0
Gamma_4_1 0
Gamma_4_2 6.3087038786953320e-01
Gamma_4_3 8.0112491688470944e-01
Gamma_4_4 9.9356925998572265e-01
Gamma_4_5 0
Gamma_4_6 0
Gamma_4_7 0
Gamma_4_8 0
Gamma_4_9 0
Gamma_4_10 0
Gamma_4_11 0
Gamma_4_12 0
Gamma_4_13 0
Gamma_4_14 0
Gamma_5_0 0
Gamma_5_1 0
Gamma_5_2 0
Gamma_5_3 0
Gamma_5_4 0
Gamma_5_5 8.6493554244419735e-01
Gamma_5_6 0
Gamma_5_7 0
Gamma_5_8 0
Gamma_5_9 0
Gamma_5_10 0
Gamma_5_11 0
Gamma_5_12 0
Gamma_5_13 0
Gamma_5_14 0
Gamma_6_0 0
Gamma_6_1 0
Gamma_6_2 0
Gamma_6_3 0
Gamma_6_4 -5.9327360198071888e-01
Gamma_6_5 7.5926320553534143e-01
Gamma_6_6 9.8524834333826861e-01
Gamma_6_7 0
Gamma_6_8 0
Gamma_6_9 0
Gamma_6_10 0
Gamma_6_11 0
Gamma_6_12 0
Gamma_6_13 0
Gamma_6_14 0
Gamma_7_0 0
Gamma_7_1 0
Gamma_7_2 0
Gamma_7_3 0
Gamma_7_4 0
Gamma_7_5 -8.0868836212640571e-01
Gamma_7_6 0
Gamma_7_7 1.0544641904213587e+00
Gamma_7_8 0
Gamma_7_9 0
Gamma_7_10 0
Gamma_7_11 0
Gamma_7_12 0
Gamma_7_13 0
Gamma_7_14 0
Gamma_8_0 0
Gamma_8_1 0
Gamma_8_2 5.3543272717318557e-01
Gamma_8_3 6.5104564429859180e-01
Gamma_8_4 0
Gamma_8_5 0
Gamma_8_6 -6.8225590122289426e-01
Gamma_8_7 0
Gamma_8_8 8.4807417789724271e-01
Gamma_8_9 0
Gamma_8_10 0
Gamma_8_11 0
Gamma_8_12 0
Gamma_8_13 0
Gamma_8_14 0
Gamma_9_0 0
Gamma_9_1 0
Gamma_9_2 0
Gamma_9_3 6.1994146959259777e-01
Gamma_9_4 0
Gamma_9_5 0
Gamma_9_6 0
Gamma_9_7 -5.3461486994816387e-01
Gamma_9_8 0
Gamma_9_9 0.985589206401958
Gamma_9_10 0
Gamma_9_11 0
Gamma_9_12 0
Gamma_9_13 0
Gamma_9_14 0
Gamma_10_0 0
Gamma_10_1 0
Gamma_10_2 0
Gamma_10_3 0
Gamma_10_4 0
Gamma_10_5 0
Gamma_10_6 0
Gamma_10_7 4.9237229674246691e-01
Gamma_10_8 0
Gamma_10_9 0
Gamma_10_10 7.9295731697326710e-01
Gamma_10_11 0
Gamma_10_12 0
Gamma_10_13 0
Gamma_10_14 0
Gamma_11_0 0
Gamma_11_1 0
Gamma_11_2 0
Gamma_11_3 0
Gamma_11_4 -5.9025119427844186e-01
Gamma_11_5 0
Gamma_11_6 0
Gamma_11_7 6.4088875513017740e-01
Gamma_11_8 4.7787998780511820e-01
Gamma_11_9 0
Gamma_11_10 0
Gamma_11_11 7.9497653619419739e-01
Gamma_11_12 0
Gamma_11_13 0
Gamma_11_14 0
Gamma_12_0 0
Gamma_12_1 -8.1943238562453913e-01
Gamma_12_2 0
Gamma_12_3 0
Gamma_12_4 0
Gamma_12_5 0
Gamma_12_6 0
Gamma_12_7 0
Gamma_12_8 0
Gamma_12_9 -6.0785939740008765e-01
Gamma_12_10 0
Gamma_12_11 0
Gamma_12_12 0.982842651997641
Gamma_12_13 0
Gamma_12_14 0
Gamma_13_0 0
Gamma_13_1 4.7096902597711854e-01
Gamma_13_2 0
Gamma_13_3 6.7009406090106982e-01
Gamma_13_4 0
Gamma_13_5 0
Gamma_13_6 0
Gamma_13_7 0
Gamma_13_8 0
Gamma_13_9 0
Gamma_13_10 0
Gamma_13_11 0
Gamma_13_12 5.3631072414035919e-01
Gamma_13_13 8.1633048018937082e-01
Gamma_13_14 0
Gamma_14_0 0
Gamma_14_1 0
Gamma_14_2 0
Gamma_14_3 0
Gamma_14_4 0
Gamma_14_5 6.1960614600462671e-01
Gamma_14_6 0
Gamma_14_7 0
Gamma_14_8 0
Gamma_14_9 0
Gamma_14_10 0
Gamma_14_11 0
Gamma_14_12 0
Gamma_14_13 0
Gamma_14_14 9.3297257139205059e-01
psi_0 6
psi_1 6
psi_2 5
psi_3 4
psi_4 3
psi_5 4
psi_6 2
psi_7 3
psi_8 1
psi_9 2
psi_10 0
psi_11 0
psi_12 1
psi_13 0
psi_14 0
g_0_0 0
g_0_1 0
g_0_2 0
g_0_3 0
g_0_4 0
g_0_5 0
g_0_6 0
g_0_7 0
g_0_8 0
g_0_9 0
g_0_10 0
g_0_11 0
g_0_12 0
g_0_13 0
g_0_14 0
g_1_0 0
g_1_1 0
g_1_2 0
g_1_3 0
g_1_4 0
g_1_5 0
g_1_6 0
g_1_7 0
g_1_8 0
g_1_9 0
g_1_10 0
g_1_11 0
g_1_12 0
g_1_13 0
g_1_14 0
g_2_0 1
g_2_1 1
g_2_2 0
g_2_3 0
g_2_4 0
g_2_5 0
g_2_6 0
g_2_7 0
g_2_8 0
g_2_9 0
g_2_10 0
g_2_11 0
g_2_12 0
g_2_13 0
g_2_14 0
g_3_0 0
g_3_1 1
g_3_2 1
g_3_3 0
g_3_4 0
g_3_5 0
g_3_6 0
g_3_7 0
g_3_8 0
g_3_9 0
g_3_10 0
g_3_11 0
g_3_12 0
g_3_13 0
g_3_14 0
g_4_0 0
g_4_1 0
g_4_2 1
g_4_3 1
g_4_4 0
g_4_5 0
g_4_6 0
g_4_7 0
g_4_8 0
g_4_9 0
g_4_10 0
g_4_11 0
g_4_12 0
g_4_13 0
g_4_14 0
g_5_0 0
g_5_1 0
g_5_2 0
g_5_3 0
g_5_4 0
g_5_5 0
g_5_6 0
g_5_7 0
g_5_8 0
g_5_9 0
g_5_10 0
g_5_11 0
g_5_12 0
g_5_13 0
g_5_14 0
g_6_0 0
g_6_1 0
g_6_2 0
g_6_3 0
g_6_4 1
g_6_5 1
g_6_6 0
g_6_7 0
g_6_8 0
g_6_9 0
g_6_10 0
g_6_11 0
g_6_12 0
g_6_13 0
g_6_14 0
g_7_0 0
g_7_1 0
g_7_2 0
g_7_3 0
g_7_4 0
g_7_5 1
g_7_6 0
g_7_7 0
g_7_8 0
g_7_9 0
g_7_10 0
g_7_11 0
g_7_12 0
g_7_13 0
g_7_14 0
g_8_0 0
g_8_1 0
g_8_2 1
g_8_3 1
g_8_4 0
g_8_5 0
g_8_6 1
g_8_7 0
g_8_8 0
g_8_9 0
g_8_10 0
g_8_11 0
g_8_12 0
g_8_13 0
g_8_14 0
g_9_0 0
g_9_1 0
g_9_2 0
g_9_3 1
g_9_4 0
g_9_5 0
g_9_6 0
g_9_7 1
g_9_8 0
g_9_9 0
g_9_10 0
g_9_11 0
g_9_12 0
g_9_13 0
g_9_14 0
g_10_0 0
g_10_1 0
g_10_2 0
g_10_3 0
g_10_4 0
g_10_5 0
g_10_6 0
g_10_7 1
g_10_8 0
g_10_9 0
g_10_10 0
g_10_11 0
g_10_12 0
g_10_13 0
g_10_14 0
g_11_0 0
g_11_1 0
g_11_2 0
g_11_3 0
g_11_4 1
g_11_5 0
g_11_6 0
g_11_7 1
g_11_8 1
g_11_9 0
g_11_10 0
g_11_11 0
g_11_12 0
g_11_13 0
g_11_14 0
g_12_0 0
g_12_1 1
g_12_2 0
g_12_3 0
g_12_4 0
g_12_5 0
g_12_6 0
g_12_7 0
g_12_8 0
g_12_9 1
g_12_10 0
g_12_11 0
g_12_12 0
g_12_13 0
g_12_14 0
g_13_0 0
g_13_1 1
g_13_2 0
g_13_3 1
g_13_4 0
g_13_5 0
g_13_6 0
g_13_7 0
g_13_8 0
g_13_9 0
g_13_10 0
g_13_11 0
g_13_12 1
g_13_13 0
g_13_14 0
g_14_0 0
g_14_1 0
g_14_2 0
g_14_3 0
g_14_4 0
g_14_5 1
g_14_6 0
g_14_7 0
g_14_8 0
g_14_9 0
g_14_10 0
g_14_11 0
g_14_12 0
g_14_13 0
g_14_14 0
T_0 4.2072933507497634e-02
T_1 -2.4305793252030083e-01
T_2 -2.0689232686648709e-01
T_3 -2.0692490874084030e-01
T_4 -6.4515062991029933e-03
T_5 -1.4510029223236973e-01
T_6 -1.4861544371752940e-02
T_7 5.3032761537279635e-02
T_8 -1.6478717308042784e-01
T_9 -1.4515637559562282e-02
T_10 -2.3198588354587132e-01
T_11 -2.2944267898449369e-01
T_12 -1.7306240825800383e-02
T_13 -2.0293600577641527e-01
T_14 -6.9379476860553624e-02
